25
    1    17    17
    2    15    15
    3    17    17
    4     4     4
    5    19    19
    6     9     9
    7     8     8
    8    17    17
    9     1     1
   10    15    15
   11     7     7
   12    10    10
   13    14    14
   14    11    11
   15     5     5
   16    13    13
   17    18    18
   18     4     4
   19     7     7
   20     8     8
   21    17    17
   22    12    12
   23     8     8
   24     4     4
   25    17    17
65
